1,1
2,1
3,1
4,0
5,0
6,0
7,0
8,1
9,0
10,1
11,1
12,0
13,1
14,1
15,1
16,0
17,1
18,0
19,0
20,0
21,1
22,1
23,1
24,1
25,1
26,1
27,1
28,1
29,1
30,1
31,1
32,1
33,1
34,1
35,1
36,1
37,1
38,1
39,1
40,1
41,1
42,1
43,1
44,1
45,1
46,1
47,1
48,1
49,1
50,1
51,1
52,1
53,1
54,1
55,1
56,1
57,1
58,1
59,0
60,1
61,1
62,1
63,1
64,1
65,1
66,0
67,0
68,1
69,1
70,1
71,1
72,1
73,1
74,1
75,1
76,1
77,1
78,1
79,1
80,1
81,1
82,1
83,1
84,1
85,1
86,1
87,1
88,0
89,0
90,1
91,0
92,0
93,0
94,1
95,0
96,1
97,1
98,0
99,1
100,1
101,1
102,1
103,1
104,1
105,1
106,1
107,1
108,1
109,0
110,1
111,0
112,0
113,0
114,0
115,0
116,0
117,0
118,0
119,0
120,0
121,1
122,0
123,1
124,1
125,0
126,0
127,1
128,0
129,1
130,1
131,1
132,0
133,1
134,0
135,0
136,1
137,1
138,1
139,1
140,1
141,1
142,0
143,1
144,1
145,0
146,0
147,0
148,0
149,0
150,0
151,0
152,0
153,0
154,1
155,0
156,0
157,0
158,0
159,0
160,0
161,0
162,0
163,0
164,1
165,0
166,0
167,0
168,0
169,0
170,0
171,1
172,0
173,0
174,1
175,1
176,1
177,1
178,1
179,1
180,0
181,0
182,0
183,1
184,1
185,1
186,0
187,0
188,1
189,1
190,0
191,0
192,0
193,0
194,1
195,0
196,1
197,0
198,0
199,1
200,1
201,1
202,1
203,1
204,1
205,0
206,0
207,1
208,0
209,1
210,1
211,0
212,1
213,1
214,0
215,0
216,1
217,1
218,1
219,1
220,0
221,0
222,0
223,0
224,0
225,0
226,0
227,1
228,0
229,1
230,0
231,0
232,0
233,0
234,0
235,0
236,1
237,0
238,0
239,0
240,0
241,0
242,1
243,1
244,0
245,0
246,0
247,1
248,1
249,1
250,0
251,0
252,0
253,0
254,0
255,0
256,0
257,1
258,0
259,1
260,0
261,1
262,0
263,1
264,1
265,1
266,1
267,1
268,1
269,1
270,1
271,1
272,1
273,1
274,1
275,1
276,1
277,1
278,1
279,1
280,0
281,1
282,0
283,1
284,1
285,1
286,1
287,1
288,1
289,1
290,1
291,1
292,1
293,1
294,1
295,1
296,1
297,1
298,1
299,1
300,1
301,1
302,1
303,1
304,1
305,1
306,1
307,1
308,1
309,1
310,1
311,1
312,1
313,1
314,1
315,1
316,1
317,1
318,1
319,1
320,1
321,1
322,1
323,1
324,1
325,1
326,1
327,1
328,1
329,1
330,1
331,1
332,1
333,1
334,1
335,1
336,0
337,0
338,0
339,1
340,0
341,0
342,0
343,0
344,0
345,0
346,0
347,0
348,1
349,1
350,1
351,0
352,0
353,0
354,0
355,0
356,0
357,0
358,0
359,1
360,0
361,0
362,0
363,0
364,1
365,0
366,0
367,0
368,0
369,1
370,1
371,1
372,1
373,0
374,1
375,0
376,0
377,1
378,1
379,1
380,1
381,1
382,1
383,0
384,1
385,1
386,1
387,1
388,1
389,1
390,1
391,1
392,0
393,1
394,1
395,1
396,0
397,1
398,0
399,0
400,0
401,0
402,0
403,0
404,0
405,0
406,0
407,0
408,0
409,1
410,0
411,1
412,0
413,0
414,0
415,0
416,0
417,0
418,1
419,0
420,0
421,1
422,0
423,0
424,0
425,1
426,1
427,1
428,1
429,0
430,0
431,1
432,0
433,0
434,1
435,1
436,1
437,0
438,1
439,1
440,1
441,1
442,1
443,1
444,1
445,1
446,1
447,1
448,1
449,1
450,1
451,1
452,1
453,0
454,1
455,1
456,1
457,1
458,1
459,1
460,1
461,0
462,0
463,1
464,0
465,0
466,0
467,0
468,0
469,0
470,0
471,0
472,0
473,0
474,0
475,0
476,0
477,0
478,0
479,0
480,0
481,0
482,0
483,0
484,0
485,0
486,0
487,0
488,0
489,0
490,0
491,1
492,0
493,1
494,0
495,0
496,1
497,0
498,0
499,0
500,0
501,0
502,0
503,0
504,0
505,0
506,1
507,1
508,1
509,1
510,1
511,0
512,0
513,0
514,0
515,0
516,0
517,1
518,0
519,0
520,0
521,0
522,0
523,0
524,0
525,0
526,0
527,0
528,0
529,0
530,0
531,0
532,0
533,0
534,0
535,0
536,0
537,0
538,0
539,0
540,0
541,1
542,1
543,1
544,1
545,1
546,0
547,0
548,0
549,0
550,0
551,0
552,0
553,0
554,0
555,0
556,0
557,0
558,0
559,0
560,0
561,0
562,0
563,0
564,0
565,0
566,0
567,0
568,0
569,0
570,0
571,0
572,0
573,0
574,0
575,0
576,0
577,0
578,0
579,0
580,0
581,0
582,0
583,0
584,0
585,0
586,0
587,0
588,0
589,1
590,1
591,0
592,0
593,1
594,1
595,1
596,1
597,1
598,1
599,1
600,1
601,1
602,1
603,1
604,1
605,1
606,1
607,1
608,0
609,0
610,0
611,1
612,1
613,0
614,0
615,0
616,0
617,0
618,0
619,0
620,0
621,0
622,1
623,0
624,0
625,1
626,1
627,1
628,1
629,1
630,0
631,0
632,1
633,0
634,0
635,0
636,0
637,0
638,1
639,1
640,1
641,1
642,0
643,1
644,0
645,0
646,0
647,0
648,0
649,1
650,0
651,1
652,1
653,0
654,1
655,0
656,0
657,0
658,0
659,0
660,0
661,0
662,1
663,1
664,0
665,1
666,1
667,1
668,0
669,0
670,1
671,1
672,1
673,1
674,1
675,1
676,1
677,0
678,1
679,1
680,1
681,0
682,0
683,0
684,0
685,1
686,1
687,0
688,0
689,1
690,0
691,0
692,1
693,1
694,0
695,1
696,0
697,0
698,0
699,1
700,1
701,0
702,1
703,1
704,0
705,1
706,0
707,0
708,0
709,1
710,0
711,0
712,0
713,0
714,0
715,1
716,1
717,1
718,1
719,0
720,0
721,0
722,0
723,1
724,0
725,0
726,0
727,0
728,0
729,0
730,0
731,0
732,0
733,1
734,1
735,1
736,0
737,0
738,0
739,0
740,0
741,0
742,1
743,0
744,0
745,0
746,0
747,0
748,1
749,1
750,0
751,0
752,0
753,1
754,0
755,1
756,1
757,1
758,0
759,1
760,1
761,1
762,0
763,0
764,1
765,1
766,1
767,0
768,0
769,1
770,1
771,1
772,0
773,1
774,1
775,0
776,1
777,1
778,1
779,1
780,1
781,1
782,1
783,1
784,1
785,1
786,1
787,1
788,1
789,1
790,1
791,0
792,0
793,0
794,1
795,1
796,1
797,1
798,1
799,1
800,1
801,1
802,1
803,1
804,1
805,0
806,0
807,1
808,0
809,1
810,1
811,1
812,1
813,1
814,0
815,0
816,0
817,0
818,0
819,0
820,0
821,0
822,0
823,1
824,1
825,1
826,1
827,0
828,0
829,0
830,0
831,0
832,0
833,0
834,0
835,0
836,0
837,0
838,0
839,0
840,1
841,1
842,1
843,1
844,1
845,1
846,1
847,1
848,1
849,1
850,1
851,1
852,1
853,0
854,1
855,1
856,1
857,1
858,1
859,0
860,0
861,1
862,1
863,1
864,1
865,1
866,1
867,1
868,1
869,1
870,1
871,0
872,1
873,0
874,1
875,0
876,0
877,0
878,1
879,1
880,1
881,0
882,1
883,1
884,1
885,0
886,1
887,1
888,1
889,0
890,1
891,1
892,1
893,1
894,1
895,1
896,1
897,1
898,1
899,1
900,1
901,0
902,0
903,1
904,0
905,0
906,0
907,0
908,0
909,1
910,0
911,1
912,0
913,1
914,0
915,0
916,0
917,1
918,1
919,0
920,1
921,0
922,0
923,0
924,0
925,0
926,0
927,0
928,0
929,1
930,0
931,0
932,0
933,1
934,0
935,1
936,1
937,0
938,1
939,1
940,1
941,0
942,1
943,0
944,0
945,0
946,0
947,0
948,0
949,0
950,0
951,0
952,0
953,0
954,1
955,0
956,1
957,0
958,0
959,1
960,1
961,1
962,1
963,1
964,1
965,0
966,0
967,0
968,0
969,0
970,0
971,0
972,1
973,1
974,1
975,1
976,1
977,1
978,1
979,1
980,0
981,0
982,1
983,1
984,1
985,1
986,0
987,1
988,0
989,0
990,0
991,0
992,0
993,0
994,1
995,1
996,1
997,1
998,1
999,1
1000,1
1001,1
1002,1
1003,0
1004,1
1005,0
1006,1
1007,0
1008,1
1009,1
1010,0
1011,0
1012,1
1013,1
1014,1
1015,1
1016,1
1017,1
1018,1
1019,0
1020,0
1021,0
1022,0
1023,0
1024,1
1025,0
1026,1
1027,1
1028,0
1029,1
1030,1
1031,1
1032,0
1033,0
1034,0
1035,1
1036,0
1037,0
1038,0
1039,0
1040,1
1041,1
1042,1
1043,0
1044,1
1045,1
1046,1
1047,0
1048,1
1049,0
1050,0
1051,1
1052,1
1053,1
1054,1
1055,1
1056,0
1057,1
1058,1
1059,0
1060,1
1061,1
1062,1
1063,1
1064,1
1065,1
1066,1
1067,1
1068,1
1069,1
1070,1
1071,0
1072,0
1073,0
1074,1
1075,0
1076,1
1077,1
1078,0
1079,1
1080,0
1081,1
1082,0
1083,1
1084,1
1085,1
1086,1
1087,1
1088,0
1089,1
1090,1
1091,0
1092,0
1093,1
1094,1
1095,1
1096,0
1097,0
1098,0
1099,1
1100,0
1101,1
1102,1
1103,0
1104,0
1105,1
1106,0
1107,1
1108,1
1109,0
1110,1
1111,1
1112,0
1113,1
1114,0
1115,1
1116,1
1117,0
1118,0
1119,1
1120,0
1121,1
1122,1
1123,0
1124,0
1125,0
1126,1
1127,0
1128,0
1129,0
1130,1
1131,0
1132,0
1133,1
1134,1
1135,1
1136,1
1137,0
1138,0
1139,0
1140,1
1141,1
1142,1
1143,1
1144,1
1145,1
1146,0
1147,1
1148,1
1149,1
1150,1
1151,1
1152,0
1153,1
1154,0
1155,0
1156,0
1157,0
1158,0
1159,1
1160,1
1161,1
1162,1
1163,0
1164,0
1165,0
1166,1
1167,1
1168,0
1169,1
1170,0
1171,1
1172,0
1173,1
1174,1
1175,0
1176,0
1177,1
1178,1
1179,0
1180,0
1181,0
1182,1
1183,1
1184,0
1185,0
1186,0
1187,1
1188,1
1189,0
1190,0
1191,0
1192,1
1193,0
1194,1
